data/MCDM/NO_CORR/GEN_FROM_60/18_ITEMS_1000_GEN/K5018W16.KNP.mps
NAME          BLANK   
ROWS
 N  OBJROW
 L  R0000000
COLUMNS
    C0000000  OBJROW     -384.         R0000000  104.        
    C0000001  OBJROW     -77.          R0000000  40.         
    C0000002  OBJROW     -875.         R0000000  853.        
    C0000003  OBJROW     -119.         R0000000  878.        
    C0000004  OBJROW     -56.          R0000000  957.        
    C0000005  OBJROW     -651.         R0000000  45.         
    C0000006  OBJROW     -510.         R0000000  734.        
    C0000007  OBJROW     -95.          R0000000  140.        
    C0000008  OBJROW     -447.         R0000000  165.        
    C0000009  OBJROW     -79.          R0000000  23.         
    C0000010  OBJROW     -71.          R0000000  999.        
    C0000011  OBJROW     -790.         R0000000  367.        
    C0000012  OBJROW     -541.         R0000000  764.        
    C0000013  OBJROW     -675.         R0000000  884.        
    C0000014  OBJROW     -967.         R0000000  253.        
    C0000015  OBJROW     -339.         R0000000  102.        
    C0000016  OBJROW     -768.         R0000000  341.        
    C0000017  OBJROW     -708.         R0000000  97.         
RHS
    RHS       R0000000  13852.      
BOUNDS
 BV BOUND     C0000000  1.          
 BV BOUND     C0000001  1.          
 BV BOUND     C0000002  1.          
 BV BOUND     C0000003  1.          
 BV BOUND     C0000004  1.          
 BV BOUND     C0000005  1.          
 BV BOUND     C0000006  1.          
 BV BOUND     C0000007  1.          
 BV BOUND     C0000008  1.          
 BV BOUND     C0000009  1.          
 BV BOUND     C0000010  1.          
 BV BOUND     C0000011  1.          
 BV BOUND     C0000012  1.          
 BV BOUND     C0000013  1.          
 BV BOUND     C0000014  1.          
 BV BOUND     C0000015  1.          
 BV BOUND     C0000016  1.          
 BV BOUND     C0000017  1.          
ENDATA
