data/MCDM/NO_CORR/GEN_FROM_60/18_ITEMS_1000_GEN/K5018W16.KNP.txt
N 18
M 19
LC 18
LC 19
LC 20
LC 21
LC 22
LC 23
LC 24
LC 25
LC 26
LC 27
LC 28
LC 29
LC 30
LC 31
LC 32
LC 33
LC 34
LC 35
LR 1
LR 2
LR 3
LR 4
LR 5
LR 6
LR 7
LR 8
LR 9
LR 10
LR 11
LR 12
LR 13
LR 14
LR 15
LR 16
LR 17
LR 18
LR 19
LO -384
LO -77
LO -875
LO -119
LO -56
LO -651
LO -510
LO -95
LO -447
LO -79
LO -71
LO -790
LO -541
LO -675
LO -967
LO -339
LO -768
LO -708
OS 1
IC 69
IC 675
IC 468
IC 215
IC 688
IC 163
IC 598
IC 895
IC 257
IC 579
IC 685
IC 68
IC 645
IC 851
IC 911
IC 467
IC 376
IC 769
IB 4690
